32 50 
1 10 10
1 20 10
1 12 1
1 28 6
1 23 6
2 7 8
2 16 9
4 30 3
4 20 3
4 10 5
4 19 6
4 26 4
5 12 7
5 26 1
6 29 7
6 18 5
6 21 1
6 10 4
6 8 1
7 16 4
7 15 2
7 20 8
7 30 5
9 18 9
9 32 6
10 18 10
10 14 9
10 13 6
11 17 6
12 28 2
12 22 4
12 16 3
13 27 1
13 21 3
14 26 4
14 22 10
15 17 3
15 16 4
16 18 10
17 31 6
18 24 8
20 23 2
24 29 10
24 26 3
24 25 6
24 28 2
25 27 6
26 30 8
29 31 7
30 32 6
